p cnf 129 389
c t mc
1 2 -3 0
-1 -2 -3 0
1 -2 3 0
-1 2 3 0
5 -4 0
5 4 0
8 6 0
8 7 0
-6 -7 -8 0
-10 8 0
-10 -9 0
-8 9 10 0
5 10 -11 0
-5 -10 -11 0
5 -10 11 0
-5 10 11 0
-12 11 0
-12 -8 0
-11 8 12 0
13 3 0
13 12 0
-3 -12 -13 0
15 -14 0
15 -9 0
14 9 -15 0
-17 -6 -18 0
17 6 -18 0
-17 6 18 0
17 -6 18 0
18 19 -20 0
-18 -19 -20 0
18 -19 20 0
-18 19 20 0
21 16 0
21 -20 0
-16 20 -21 0
-22 -14 0
-22 14 0
23 -21 0
23 22 0
21 -22 -23 0
-25 24 0
-25 -6 0
-24 6 25 0
26 23 0
26 25 0
-23 -25 -26 0
-27 15 0
-27 -26 0
-15 26 27 0
28 -14 0
28 -17 0
14 17 -28 0
29 -28 0
29 6 0
28 -6 -29 0
-30 24 -31 0
30 -24 -31 0
-30 -24 31 0
30 24 31 0
32 29 0
32 -31 0
-29 31 -32 0
-7 9 -33 0
7 -9 -33 0
-7 -9 33 0
7 9 33 0
34 33 0
34 1 0
-33 -1 -34 0
-36 -29 0
-36 35 0
29 -35 36 0
37 34 0
37 36 0
-34 -36 -37 0
32 37 -38 0
-32 -37 -38 0
32 -37 38 0
-32 37 38 0
40 -41 -42 0
-40 41 -42 0
40 41 42 0
-40 -41 42 0
43 -39 0
43 42 0
39 -42 -43 0
38 43 -44 0
-38 -43 -44 0
38 -43 44 0
-38 43 44 0
-27 44 -45 0
27 -44 -45 0
-27 -44 45 0
27 44 45 0
46 13 0
46 -45 0
-13 45 -46 0
-6 -11 -47 0
6 11 -47 0
-6 11 47 0
6 -11 47 0
-48 25 0
-48 4 0
-25 -4 48 0
49 -25 0
49 48 0
25 -48 -49 0
-50 -19 0
-50 7 0
19 -7 50 0
51 8 0
51 -50 0
-8 50 -51 0
-52 -49 0
-52 -51 0
49 51 52 0
-53 47 0
-53 -52 0
-47 52 53 0
54 41 0
54 1 0
-41 -1 -54 0
55 -54 0
55 4 0
54 -4 -55 0
-56 -21 0
-56 55 0
21 -55 56 0
33 -19 -57 0
-33 19 -57 0
33 19 57 0
-33 -19 57 0
-59 57 0
-59 -58 0
-57 58 59 0
-59 28 -60 0
59 -28 -60 0
-59 -28 60 0
59 28 60 0
-61 59 0
-61 -60 0
-59 60 61 0
62 58 -63 0
-62 -58 -63 0
62 -58 63 0
-62 58 63 0
-64 61 0
-64 -63 0
-61 63 64 0
65 -33 0
65 -62 0
33 62 -65 0
64 65 -66 0
-64 -65 -66 0
64 -65 66 0
-64 65 66 0
-67 63 0
-67 -51 0
-63 51 67 0
67 63 -68 0
-67 -63 -68 0
67 -63 68 0
-67 63 68 0
-66 -68 -69 0
66 68 -69 0
-66 68 69 0
66 -68 69 0
-70 -56 0
-70 -69 0
56 69 70 0
-71 53 0
-71 70 0
-53 -70 71 0
-72 46 0
-72 -71 0
-46 71 72 0
73 39 -74 0
-73 -39 -74 0
73 -39 74 0
-73 39 74 0
75 74 0
75 39 0
-74 -39 -75 0
76 72 0
76 75 0
-72 -75 -76 0
-77 42 0
-77 17 0
-42 -17 77 0
-79 78 0
-79 -10 0
-78 10 79 0
-77 79 -80 0
77 -79 -80 0
-77 -79 80 0
77 79 80 0
81 78 0
81 -63 0
-78 63 -81 0
-82 -81 0
-82 9 0
81 -9 82 0
-83 -61 0
-83 19 0
61 -19 83 0
84 82 0
84 83 0
-82 -83 -84 0
-80 -84 -85 0
80 84 -85 0
-80 84 85 0
80 -84 85 0
-59 25 -86 0
59 -25 -86 0
-59 -25 86 0
59 25 86 0
-87 86 0
-87 34 0
-86 -34 87 0
88 42 0
88 -34 0
-42 34 -88 0
-89 87 0
-89 88 0
-87 -88 89 0
-90 85 0
-90 -89 0
-85 89 90 0
91 1 0
91 49 0
-1 -49 -91 0
92 -67 0
92 -91 0
67 91 -92 0
-90 -92 -93 0
90 92 -93 0
-90 92 93 0
90 -92 93 0
-94 -55 0
-94 -34 0
55 34 94 0
95 93 0
95 -94 0
-93 94 -95 0
-96 -76 0
-96 -95 0
76 95 96 0
98 97 0
98 62 0
-97 -62 -98 0
99 57 0
99 55 0
-57 -55 -99 0
98 -99 -100 0
-98 99 -100 0
98 99 100 0
-98 -99 100 0
-102 18 0
-102 -101 0
-18 101 102 0
-102 -30 -103 0
102 30 -103 0
-102 30 103 0
102 -30 103 0
-104 -14 0
-104 103 0
14 -103 104 0
-105 -22 0
-105 -104 0
22 104 105 0
106 -91 0
106 101 0
91 -101 -106 0
-106 73 -107 0
106 -73 -107 0
-106 -73 107 0
106 73 107 0
105 -107 -108 0
-105 107 -108 0
105 107 108 0
-105 -107 108 0
109 102 0
109 19 0
-102 -19 -109 0
-110 -14 0
-110 109 0
14 -109 110 0
-111 -108 0
-111 110 0
108 -110 111 0
100 -111 -112 0
-100 111 -112 0
100 111 112 0
-100 -111 112 0
113 81 0
113 28 0
-81 -28 -113 0
-114 112 0
-114 113 0
-112 -113 114 0
115 -58 -116 0
-115 58 -116 0
115 58 116 0
-115 -58 116 0
-117 -9 0
-117 -7 0
9 7 117 0
-118 -117 0
-118 -11 0
117 11 118 0
-119 57 0
-119 -73 0
-57 73 119 0
120 -14 0
120 119 0
14 -119 -120 0
-121 -67 0
-121 74 0
67 -74 121 0
-19 -28 -122 0
19 28 -122 0
-19 28 122 0
19 -28 122 0
123 122 0
123 59 0
-122 -59 -123 0
-124 -121 0
-124 -123 0
121 123 124 0
125 -120 0
125 124 0
120 -124 -125 0
-118 -125 -126 0
118 125 -126 0
-118 125 126 0
118 -125 126 0
127 -116 0
127 -126 0
116 126 -127 0
-128 -114 0
-128 127 0
114 -127 128 0
129 96 0
129 -128 0
-96 128 -129 0
-104 -84 -20 109 123 63 108 80 69 0
-18 -62 25 0
-78 -120 86 91 50 0
112 -44 18 -12 52 109 0
-54 113 -90 120 0
19 116 -29 93 79 0
18 32 -53 120 -10 0
-96 -121 117 -49 -102 63 -37 118 0
-56 -35 18 -27 78 -26 -118 0
122 -62 22 -103 0
43 32 51 -38 87 -36 39 -28 129 -95 0
-77 -30 23 -74 76 18 -3 -46 -97 0
91 10 120 13 -53 67 1 68 0
-32 -93 66 -126 0
109 74 99 -17 32 0
118 -16 -42 -10 -56 82 0
-85 -50 -69 -46 -55 0
-99 125 -42 124 -55 0
-118 -89 -40 -86 -31 76 -56 0
-53 63 46 -94 24 -104 0
94 21 -71 -43 63 30 -107 -87 -102 20 0
81 -7 -124 85 28 -9 -34 -82 88 79 0
-61 60 -110 0
114 5 -53 -25 107 -93 -33 -123 128 0
77 -25 -100 111 98 124 0
-54 -82 -77 95 -29 -65 -35 0
-58 -28 -102 78 34 7 -92 0
51 -128 -127 21 13 -90 -110 -66 -75 0
-67 22 -102 -33 -65 -50 -108 77 9 -110 0
-51 -78 113 -126 115 59 0
-32 5 -15 9 8 52 0
34 -37 -96 -30 -104 55 15 -114 0
59 87 -41 100 -38 7 -49 0
110 -49 73 -35 -33 0
99 71 41 -103 33 -102 87 -100 0
-96 18 -93 -17 -94 13 -76 -106 -114 117 0
-57 25 -48 118 95 -47 0
7 86 45 0
-31 -102 -13 4 -105 0
-104 126 -74 0
-105 -11 -46 -31 85 0
-82 -63 48 3 -125 -72 -92 0
129 0
